Ba1 Ti1 O3
1.0
3.905000 0.000000 0.000000
0.000000 3.905000 0.000000
0.000000 0.000000 3.905000
Ba Ti O
1 1 3
direct
0.000000 0.000000 0.000000 Ba
0.500000 0.500000 0.500000 Ti
0.500000 0.500000 0.000000 O
0.500000 0.000000 0.500000 O
0.000000 0.500000 0.500000 O
