Ba4 Ti4 O12
1.0
7.810000 0.000000 0.000000
0.000000 7.810000 0.000000
0.000000 0.000000 3.905000
Ba Ti O
4 4 12
direct
0.000000 0.000000 0.000000 Ba
0.000000 0.500000 0.000000 Ba
0.500000 0.000000 0.000000 Ba
0.500000 0.500000 0.000000 Ba
0.250000 0.250000 0.500000 Ti
0.250000 0.750000 0.500000 Ti
0.750000 0.250000 0.500000 Ti
0.750000 0.750000 0.500000 Ti
0.250000 0.250000 0.000000 O
0.250000 0.750000 0.000000 O
0.750000 0.250000 0.000000 O
0.750000 0.750000 0.000000 O
0.250000 0.000000 0.500000 O
0.250000 0.500000 0.500000 O
0.750000 0.000000 0.500000 O
0.750000 0.500000 0.500000 O
0.000000 0.250000 0.500000 O
0.000000 0.750000 0.500000 O
0.500000 0.250000 0.500000 O
0.500000 0.750000 0.500000 O
