Cs1 Cl1
1.0
3.905000 0.000000 0.000000
0.000000 3.905000 0.000000
0.000000 0.000000 3.905000
Cs Cl
1 1
direct
0.000000 0.000000 0.000000 Cs
0.500000 0.500000 0.500000 Cl
